NAME : random_10
COMMENT : 50 random nodes
TYPE : TSP
DIMENSION : 50
EDGE_WEIGHT_TYPE : EUC_2D
NODE_COORD_SECTION
1 327 138
2 19 235
3 914 431
4 592 505
5 943 978
6 992 956
7 331 516
8 492 189
9 574 92
10 261 214
11 252 443
12 314 276
13 717 408
14 106 505
15 708 114
16 847 736
17 217 837
18 715 499
19 258 727
20 557 379
21 245 980
22 851 291
23 556 172
24 466 853
25 761 438
26 142 582
27 358 723
28 837 882
29 590 573
30 277 805
31 90 652
32 334 204
33 142 472
34 654 114
35 615 707
36 143 216
37 833 479
38 354 315
39 505 816
40 579 614
41 482 465
42 534 667
43 459 53
44 577 482
45 935 692
46 320 683
47 936 127
48 973 37
49 259 449
50 958 332
EOF